NAME: cuum1000.tsp
TYPE: TSP
COMMENT: User-generated TSP file
DIMENSION: 1000
EDGE_WEIGHT_TYPE: EUC_2D
NODE_COORD_SECTION
1 643.0 274.0
2 994.0 495.0
3 496.0 938.0
4 956.0 316.0
5 418.0 396.0
6 545.0 700.0
7 537.0 42.0
8 845.0 738.0
9 922.0 579.0
10 593.0 452.0
11 757.0 392.0
12 691.0 856.0
13 968.0 999.0
14 559.0 214.0
15 274.0 786.0
16 145.0 808.0
17 320.0 479.0
18 573.0 767.0
19 563.0 600.0
20 264.0 618.0
21 80.0 21.0
22 44.0 481.0
23 822.0 126.0
24 826.0 153.0
25 283.0 197.0
26 638.0 970.0
27 269.0 941.0
28 815.0 462.0
29 755.0 254.0
30 587.0 661.0
31 369.0 610.0
32 101.0 22.0
33 959.0 576.0
34 173.0 657.0
35 486.0 139.0
36 936.0 33.0
37 332.0 269.0
38 970.0 229.0
39 790.0 803.0
40 130.0 350.0
41 2.0 581.0
42 286.0 179.0
43 989.0 477.0
44 70.0 851.0
45 662.0 999.0
46 126.0 836.0
47 990.0 919.0
48 667.0 808.0
49 83.0 222.0
50 247.0 549.0
51 553.0 219.0
52 80.0 134.0
53 199.0 804.0
54 220.0 826.0
55 420.0 914.0
56 576.0 373.0
57 59.0 656.0
58 796.0 218.0
59 209.0 413.0
60 596.0 484.0
61 727.0 510.0
62 968.0 470.0
63 997.0 499.0
64 429.0 760.0
65 664.0 561.0
66 586.0 753.0
67 142.0 112.0
68 719.0 322.0
69 907.0 98.0
70 851.0 918.0
71 85.0 534.0
72 888.0 965.0
73 708.0 746.0
74 768.0 325.0
75 199.0 617.0
76 185.0 259.0
77 547.0 56.0
78 324.0 133.0
79 146.0 506.0
80 717.0 819.0
81 671.0 171.0
82 224.0 176.0
83 841.0 629.0
84 409.0 730.0
85 832.0 650.0
86 373.0 232.0
87 364.0 733.0
88 841.0 388.0
89 728.0 585.0
90 990.0 545.0
91 442.0 676.0
92 276.0 700.0
93 402.0 764.0
94 821.0 513.0
95 985.0 732.0
96 889.0 996.0
97 423.0 451.0
98 51.0 340.0
99 185.0 674.0
100 714.0 767.0
101 999.0 502.0
102 889.0 700.0
103 39.0 424.0
104 859.0 981.0
105 17.0 36.0
106 648.0 708.0
107 582.0 679.0
108 892.0 924.0
109 114.0 286.0
110 132.0 2.0
111 921.0 975.0
112 75.0 93.0
113 201.0 374.0
114 635.0 930.0
115 322.0 717.0
116 148.0 103.0
117 522.0 52.0
118 856.0 748.0
119 1000.0 760.0
120 696.0 135.0
121 784.0 720.0
122 114.0 718.0
123 739.0 743.0
124 180.0 375.0
125 251.0 862.0
126 953.0 16.0
127 557.0 541.0
128 89.0 814.0
129 134.0 602.0
130 307.0 289.0
131 995.0 248.0
132 67.0 889.0
133 436.0 526.0
134 828.0 20.0
135 830.0 440.0
136 252.0 496.0
137 925.0 609.0
138 192.0 927.0
139 829.0 296.0
140 640.0 119.0
141 564.0 531.0
142 445.0 414.0
143 24.0 874.0
144 224.0 385.0
145 459.0 665.0
146 856.0 210.0
147 836.0 452.0
148 913.0 929.0
149 481.0 750.0
150 157.0 698.0
151 943.0 795.0
152 698.0 749.0
153 951.0 85.0
154 587.0 183.0
155 62.0 571.0
156 128.0 381.0
157 283.0 628.0
158 840.0 723.0
159 224.0 849.0
160 823.0 123.0
161 323.0 772.0
162 288.0 580.0
163 72.0 483.0
164 525.0 525.0
165 72.0 538.0
166 921.0 591.0
167 368.0 210.0
168 143.0 712.0
169 41.0 248.0
170 344.0 827.0
171 212.0 800.0
172 551.0 326.0
173 271.0 942.0
174 458.0 224.0
175 128.0 347.0
176 912.0 590.0
177 269.0 445.0
178 1.0 40.0
179 151.0 372.0
180 423.0 392.0
181 356.0 388.0
182 870.0 755.0
183 367.0 575.0
184 693.0 125.0
185 815.0 762.0
186 648.0 84.0
187 623.0 43.0
188 771.0 630.0
189 44.0 445.0
190 916.0 390.0
191 455.0 677.0
192 538.0 732.0
193 415.0 857.0
194 744.0 356.0
195 828.0 81.0
196 38.0 166.0
197 571.0 406.0
198 831.0 667.0
199 264.0 280.0
200 788.0 819.0
201 401.0 960.0
202 955.0 659.0
203 520.0 561.0
204 764.0 527.0
205 158.0 545.0
206 180.0 743.0
207 422.0 679.0
208 514.0 173.0
209 643.0 867.0
210 932.0 196.0
211 566.0 578.0
212 426.0 508.0
213 654.0 510.0
214 124.0 62.0
215 258.0 173.0
216 199.0 376.0
217 223.0 498.0
218 906.0 171.0
219 108.0 519.0
220 699.0 774.0
221 166.0 934.0
222 117.0 684.0
223 444.0 588.0
224 380.0 814.0
225 432.0 562.0
226 1.0 460.0
227 344.0 476.0
228 763.0 807.0
229 279.0 519.0
230 775.0 355.0
231 445.0 528.0
232 698.0 60.0
233 131.0 116.0
234 505.0 1.0
235 667.0 362.0
236 946.0 67.0
237 63.0 585.0
238 761.0 220.0
239 206.0 871.0
240 191.0 568.0
241 161.0 779.0
242 482.0 297.0
243 434.0 679.0
244 581.0 501.0
245 820.0 68.0
246 740.0 337.0
247 33.0 774.0
248 301.0 260.0
249 593.0 45.0
250 984.0 282.0
251 650.0 303.0
252 616.0 522.0
253 762.0 870.0
254 980.0 746.0
255 842.0 945.0
256 857.0 903.0
257 984.0 863.0
258 308.0 306.0
259 125.0 166.0
260 560.0 30.0
261 238.0 9.0
262 27.0 90.0
263 914.0 914.0
264 638.0 787.0
265 75.0 216.0
266 882.0 493.0
267 789.0 139.0
268 930.0 187.0
269 628.0 28.0
270 357.0 564.0
271 789.0 501.0
272 397.0 673.0
273 622.0 100.0
274 317.0 171.0
275 940.0 94.0
276 591.0 780.0
277 957.0 990.0
278 997.0 266.0
279 375.0 161.0
280 629.0 801.0
281 120.0 371.0
282 930.0 351.0
283 281.0 419.0
284 63.0 419.0
285 545.0 174.0
286 943.0 612.0
287 60.0 211.0
288 964.0 727.0
289 681.0 822.0
290 670.0 830.0
291 886.0 728.0
292 495.0 814.0
293 980.0 244.0
294 486.0 351.0
295 770.0 826.0
296 182.0 108.0
297 411.0 510.0
298 615.0 608.0
299 557.0 2.0
300 897.0 882.0
301 226.0 173.0
302 643.0 5.0
303 784.0 798.0
304 620.0 468.0
305 641.0 36.0
306 848.0 584.0
307 175.0 990.0
308 181.0 658.0
309 894.0 785.0
310 629.0 865.0
311 334.0 838.0
312 370.0 715.0
313 618.0 325.0
314 214.0 603.0
315 356.0 985.0
316 835.0 608.0
317 391.0 942.0
318 899.0 318.0
319 151.0 857.0
320 205.0 98.0
321 440.0 205.0
322 227.0 474.0
323 178.0 996.0
324 284.0 122.0
325 451.0 950.0
326 880.0 553.0
327 618.0 10.0
328 620.0 506.0
329 117.0 170.0
330 221.0 293.0
331 377.0 474.0
332 964.0 178.0
333 858.0 699.0
334 887.0 89.0
335 731.0 847.0
336 30.0 44.0
337 954.0 340.0
338 149.0 334.0
339 706.0 326.0
340 552.0 624.0
341 303.0 304.0
342 609.0 449.0
343 751.0 233.0
344 858.0 935.0
345 158.0 838.0
346 188.0 34.0
347 150.0 385.0
348 565.0 719.0
349 99.0 835.0
350 1.0 492.0
351 941.0 623.0
352 340.0 788.0
353 269.0 78.0
354 523.0 453.0
355 893.0 658.0
356 532.0 464.0
357 73.0 396.0
358 70.0 451.0
359 565.0 450.0
360 467.0 620.0
361 837.0 795.0
362 749.0 237.0
363 473.0 265.0
364 540.0 463.0
365 589.0 909.0
366 561.0 863.0
367 60.0 983.0
368 439.0 5.0
369 410.0 141.0
370 786.0 56.0
371 225.0 932.0
372 605.0 383.0
373 243.0 584.0
374 499.0 586.0
375 273.0 849.0
376 497.0 325.0
377 11.0 642.0
378 120.0 833.0
379 652.0 299.0
380 415.0 655.0
381 125.0 614.0
382 276.0 312.0
383 374.0 218.0
384 674.0 848.0
385 228.0 865.0
386 53.0 401.0
387 503.0 880.0
388 166.0 162.0
389 563.0 305.0
390 663.0 380.0
391 42.0 369.0
392 459.0 562.0
393 766.0 631.0
394 263.0 940.0
395 815.0 296.0
396 340.0 606.0
397 461.0 450.0
398 701.0 525.0
399 536.0 915.0
400 534.0 990.0
401 328.0 681.0
402 823.0 90.0
403 557.0 939.0
404 717.0 575.0
405 93.0 922.0
406 997.0 663.0
407 428.0 929.0
408 456.0 743.0
409 575.0 685.0
410 795.0 489.0
411 603.0 192.0
412 793.0 652.0
413 323.0 633.0
414 442.0 454.0
415 988.0 696.0
416 966.0 194.0
417 654.0 664.0
418 72.0 617.0
419 247.0 630.0
420 529.0 517.0
421 565.0 799.0
422 492.0 414.0
423 618.0 758.0
424 93.0 821.0
425 170.0 662.0
426 476.0 16.0
427 779.0 56.0
428 215.0 466.0
429 961.0 225.0
430 664.0 945.0
431 810.0 152.0
432 780.0 589.0
433 1000.0 750.0
434 73.0 957.0
435 340.0 599.0
436 322.0 914.0
437 947.0 736.0
438 199.0 897.0
439 839.0 490.0
440 228.0 611.0
441 703.0 530.0
442 859.0 138.0
443 864.0 158.0
444 722.0 1000.0
445 721.0 700.0
446 589.0 290.0
447 622.0 711.0
448 266.0 643.0
449 138.0 599.0
450 792.0 417.0
451 762.0 727.0
452 698.0 447.0
453 641.0 234.0
454 537.0 897.0
455 278.0 280.0
456 265.0 411.0
457 686.0 738.0
458 429.0 303.0
459 414.0 522.0
460 603.0 876.0
461 728.0 276.0
462 869.0 989.0
463 674.0 713.0
464 772.0 561.0
465 54.0 781.0
466 589.0 904.0
467 903.0 284.0
468 49.0 665.0
469 424.0 817.0
470 887.0 933.0
471 477.0 118.0
472 391.0 571.0
473 42.0 712.0
474 936.0 949.0
475 415.0 898.0
476 665.0 159.0
477 681.0 587.0
478 762.0 860.0
479 684.0 405.0
480 214.0 242.0
481 393.0 113.0
482 95.0 372.0
483 832.0 347.0
484 836.0 49.0
485 857.0 428.0
486 198.0 698.0
487 63.0 515.0
488 224.0 677.0
489 520.0 67.0
490 57.0 257.0
491 343.0 3.0
492 654.0 186.0
493 152.0 69.0
494 439.0 8.0
495 786.0 875.0
496 760.0 271.0
497 53.0 59.0
498 831.0 85.0
499 406.0 601.0
500 496.0 62.0
501 96.0 786.0
502 314.0 561.0
503 230.0 342.0
504 393.0 122.0
505 526.0 232.0
506 643.0 327.0
507 469.0 572.0
508 95.0 175.0
509 631.0 303.0
510 698.0 49.0
511 592.0 345.0
512 296.0 628.0
513 375.0 180.0
514 669.0 886.0
515 169.0 164.0
516 42.0 80.0
517 404.0 505.0
518 954.0 546.0
519 819.0 679.0
520 204.0 327.0
521 868.0 977.0
522 692.0 99.0
523 260.0 481.0
524 461.0 156.0
525 538.0 847.0
526 977.0 349.0
527 224.0 228.0
528 585.0 521.0
529 556.0 639.0
530 554.0 912.0
531 190.0 612.0
532 612.0 709.0
533 447.0 58.0
534 649.0 383.0
535 360.0 292.0
536 999.0 664.0
537 403.0 977.0
538 314.0 65.0
539 524.0 725.0
540 470.0 892.0
541 175.0 645.0
542 185.0 268.0
543 351.0 99.0
544 398.0 713.0
545 936.0 372.0
546 977.0 522.0
547 616.0 904.0
548 320.0 981.0
549 888.0 25.0
550 350.0 667.0
551 846.0 628.0
552 996.0 384.0
553 400.0 86.0
554 91.0 876.0
555 965.0 686.0
556 806.0 902.0
557 402.0 430.0
558 196.0 865.0
559 424.0 584.0
560 793.0 511.0
561 849.0 993.0
562 845.0 322.0
563 327.0 175.0
564 511.0 292.0
565 565.0 686.0
566 816.0 752.0
567 67.0 782.0
568 451.0 171.0
569 257.0 55.0
570 838.0 305.0
571 842.0 444.0
572 114.0 170.0
573 181.0 575.0
574 60.0 586.0
575 102.0 742.0
576 869.0 881.0
577 500.0 851.0
578 643.0 680.0
579 742.0 86.0
580 621.0 235.0
581 22.0 323.0
582 667.0 5.0
583 384.0 70.0
584 702.0 774.0
585 640.0 163.0
586 322.0 408.0
587 191.0 419.0
588 393.0 329.0
589 803.0 912.0
590 492.0 132.0
591 660.0 469.0
592 545.0 60.0
593 705.0 261.0
594 613.0 51.0
595 754.0 466.0
596 864.0 759.0
597 111.0 513.0
598 423.0 83.0
599 582.0 269.0
600 240.0 143.0
601 313.0 560.0
602 371.0 375.0
603 400.0 669.0
604 688.0 250.0
605 865.0 276.0
606 940.0 298.0
607 636.0 743.0
608 642.0 180.0
609 127.0 281.0
610 60.0 828.0
611 930.0 731.0
612 62.0 632.0
613 613.0 568.0
614 475.0 671.0
615 121.0 703.0
616 779.0 951.0
617 416.0 810.0
618 189.0 746.0
619 313.0 257.0
620 239.0 557.0
621 397.0 771.0
622 852.0 648.0
623 432.0 448.0
624 364.0 712.0
625 676.0 428.0
626 248.0 549.0
627 850.0 70.0
628 297.0 383.0
629 103.0 828.0
630 658.0 582.0
631 486.0 951.0
632 443.0 256.0
633 515.0 583.0
634 840.0 838.0
635 625.0 852.0
636 487.0 596.0
637 414.0 846.0
638 334.0 512.0
639 708.0 211.0
640 390.0 139.0
641 745.0 113.0
642 924.0 654.0
643 238.0 784.0
644 354.0 210.0
645 386.0 801.0
646 497.0 632.0
647 893.0 590.0
648 634.0 818.0
649 872.0 311.0
650 156.0 595.0
651 71.0 104.0
652 45.0 567.0
653 585.0 318.0
654 643.0 426.0
655 267.0 369.0
656 63.0 255.0
657 807.0 156.0
658 852.0 788.0
659 658.0 640.0
660 639.0 465.0
661 680.0 808.0
662 970.0 647.0
663 758.0 699.0
664 108.0 962.0
665 574.0 801.0
666 949.0 630.0
667 720.0 759.0
668 988.0 826.0
669 482.0 260.0
670 501.0 551.0
671 45.0 532.0
672 418.0 667.0
673 979.0 709.0
674 828.0 949.0
675 918.0 270.0
676 823.0 545.0
677 81.0 79.0
678 966.0 928.0
679 633.0 404.0
680 72.0 772.0
681 818.0 776.0
682 596.0 458.0
683 174.0 319.0
684 731.0 482.0
685 357.0 680.0
686 319.0 843.0
687 316.0 617.0
688 613.0 712.0
689 752.0 19.0
690 947.0 766.0
691 121.0 335.0
692 813.0 220.0
693 478.0 639.0
694 29.0 183.0
695 494.0 722.0
696 897.0 19.0
697 460.0 932.0
698 320.0 747.0
699 242.0 203.0
700 457.0 47.0
701 660.0 126.0
702 376.0 779.0
703 995.0 204.0
704 987.0 81.0
705 82.0 12.0
706 711.0 967.0
707 476.0 541.0
708 802.0 862.0
709 625.0 76.0
710 153.0 840.0
711 886.0 931.0
712 874.0 399.0
713 860.0 766.0
714 110.0 591.0
715 110.0 719.0
716 316.0 334.0
717 934.0 910.0
718 13.0 962.0
719 150.0 613.0
720 399.0 507.0
721 912.0 289.0
722 6.0 35.0
723 891.0 837.0
724 414.0 411.0
725 870.0 255.0
726 593.0 907.0
727 149.0 421.0
728 63.0 943.0
729 664.0 933.0
730 968.0 462.0
731 405.0 202.0
732 488.0 164.0
733 376.0 272.0
734 534.0 266.0
735 905.0 710.0
736 115.0 871.0
737 754.0 64.0
738 158.0 902.0
739 681.0 35.0
740 81.0 264.0
741 842.0 292.0
742 123.0 439.0
743 127.0 332.0
744 337.0 768.0
745 84.0 996.0
746 876.0 595.0
747 837.0 422.0
748 560.0 184.0
749 223.0 818.0
750 846.0 790.0
751 770.0 466.0
752 222.0 617.0
753 509.0 524.0
754 609.0 306.0
755 288.0 890.0
756 66.0 130.0
757 143.0 180.0
758 932.0 295.0
759 253.0 671.0
760 812.0 553.0
761 153.0 206.0
762 712.0 291.0
763 467.0 277.0
764 538.0 576.0
765 309.0 663.0
766 165.0 850.0
767 835.0 738.0
768 665.0 583.0
769 531.0 171.0
770 579.0 860.0
771 42.0 572.0
772 256.0 674.0
773 334.0 722.0
774 484.0 830.0
775 700.0 367.0
776 168.0 363.0
777 767.0 908.0
778 226.0 746.0
779 93.0 523.0
780 270.0 538.0
781 462.0 972.0
782 948.0 746.0
783 469.0 132.0
784 570.0 101.0
785 453.0 278.0
786 183.0 277.0
787 185.0 611.0
788 8.0 218.0
789 21.0 986.0
790 897.0 696.0
791 1000.0 588.0
792 855.0 894.0
793 562.0 628.0
794 791.0 594.0
795 836.0 712.0
796 639.0 989.0
797 224.0 789.0
798 299.0 47.0
799 157.0 594.0
800 918.0 504.0
801 556.0 441.0
802 693.0 136.0
803 310.0 106.0
804 121.0 945.0
805 265.0 87.0
806 30.0 450.0
807 220.0 482.0
808 906.0 192.0
809 856.0 288.0
810 559.0 40.0
811 92.0 198.0
812 151.0 738.0
813 909.0 551.0
814 204.0 504.0
815 52.0 24.0
816 434.0 606.0
817 262.0 107.0
818 951.0 396.0
819 410.0 909.0
820 106.0 856.0
821 164.0 763.0
822 552.0 964.0
823 918.0 786.0
824 773.0 961.0
825 856.0 749.0
826 335.0 328.0
827 57.0 647.0
828 841.0 415.0
829 683.0 790.0
830 977.0 575.0
831 979.0 215.0
832 131.0 580.0
833 923.0 493.0
834 1000.0 309.0
835 927.0 705.0
836 558.0 955.0
837 874.0 485.0
838 107.0 74.0
839 899.0 226.0
840 456.0 411.0
841 486.0 648.0
842 210.0 814.0
843 678.0 333.0
844 306.0 786.0
845 333.0 630.0
846 743.0 387.0
847 304.0 155.0
848 208.0 172.0
849 40.0 275.0
850 675.0 446.0
851 65.0 835.0
852 493.0 159.0
853 472.0 752.0
854 766.0 257.0
855 873.0 948.0
856 963.0 92.0
857 756.0 674.0
858 254.0 139.0
859 38.0 885.0
860 289.0 164.0
861 458.0 946.0
862 481.0 559.0
863 693.0 737.0
864 970.0 585.0
865 232.0 264.0
866 274.0 45.0
867 907.0 736.0
868 880.0 568.0
869 630.0 71.0
870 357.0 991.0
871 566.0 96.0
872 49.0 531.0
873 350.0 675.0
874 781.0 136.0
875 206.0 685.0
876 652.0 989.0
877 386.0 946.0
878 182.0 155.0
879 408.0 419.0
880 836.0 123.0
881 626.0 704.0
882 449.0 693.0
883 710.0 525.0
884 829.0 809.0
885 791.0 757.0
886 696.0 503.0
887 746.0 864.0
888 819.0 326.0
889 232.0 925.0
890 694.0 294.0
891 203.0 781.0
892 787.0 868.0
893 662.0 325.0
894 99.0 188.0
895 30.0 161.0
896 279.0 341.0
897 216.0 886.0
898 881.0 718.0
899 302.0 19.0
900 594.0 760.0
901 626.0 285.0
902 483.0 715.0
903 856.0 661.0
904 566.0 508.0
905 562.0 674.0
906 323.0 333.0
907 40.0 673.0
908 876.0 375.0
909 755.0 214.0
910 667.0 130.0
911 13.0 233.0
912 554.0 943.0
913 173.0 529.0
914 896.0 117.0
915 196.0 605.0
916 666.0 136.0
917 951.0 379.0
918 77.0 328.0
919 366.0 908.0
920 112.0 937.0
921 514.0 296.0
922 592.0 29.0
923 203.0 222.0
924 839.0 302.0
925 1000.0 346.0
926 386.0 244.0
927 906.0 346.0
928 327.0 902.0
929 41.0 698.0
930 637.0 354.0
931 224.0 258.0
932 505.0 207.0
933 115.0 765.0
934 492.0 574.0
935 403.0 592.0
936 294.0 494.0
937 513.0 28.0
938 776.0 886.0
939 809.0 355.0
940 62.0 269.0
941 388.0 132.0
942 220.0 224.0
943 742.0 24.0
944 18.0 875.0
945 759.0 1000.0
946 469.0 597.0
947 700.0 495.0
948 845.0 756.0
949 903.0 328.0
950 530.0 993.0
951 551.0 311.0
952 744.0 519.0
953 884.0 895.0
954 158.0 524.0
955 621.0 920.0
956 169.0 176.0
957 790.0 972.0
958 356.0 197.0
959 708.0 382.0
960 892.0 437.0
961 900.0 819.0
962 411.0 239.0
963 115.0 119.0
964 750.0 75.0
965 479.0 483.0
966 993.0 132.0
967 986.0 38.0
968 865.0 374.0
969 86.0 724.0
970 726.0 414.0
971 284.0 770.0
972 283.0 418.0
973 153.0 254.0
974 694.0 751.0
975 94.0 877.0
976 922.0 124.0
977 270.0 666.0
978 100.0 926.0
979 847.0 149.0
980 713.0 450.0
981 346.0 11.0
982 564.0 395.0
983 246.0 195.0
984 29.0 666.0
985 690.0 457.0
986 511.0 276.0
987 961.0 671.0
988 466.0 944.0
989 490.0 359.0
990 57.0 291.0
991 47.0 488.0
992 430.0 428.0
993 391.0 644.0
994 245.0 879.0
995 407.0 139.0
996 472.0 309.0
997 247.0 867.0
998 652.0 24.0
999 548.0 794.0
1000 678.0 562.0
EOF





